Route #1: 1 23 4 23 29 32 9 49 1 
Route #2: 1 47 16 34 16 18 19 5 48 1 
Route #3: 1 12 17 22 17 30 17 33 1 
Route #4: 1 19 26 25 44 25 7 1 
Route #5: 1 28 2 23 3 17 51 35 17 1 
Route #6: 1 19 15 25 24 8 27 9 1 
Route #7: 1 6 50 11 50 31 10 50 39 1 
Route #8: 1 16 46 45 16 38 13 1 
Cost 707.0
